experiments/knapsack_bounded/knapsack_bounded_10_1.mps
NAME
ROWS
 N  OBJ
 L  c1
 L  c2
 L  c3
 L  c4
 L  c5
 L  c6
 L  c7
 L  c8
 L  c9
 L  c10
 L  c11
COLUMNS
    MARKER    'MARKER'                 'INTORG'
    x[1]      c1        717
    x[1]      c2        1
    x[1]      OBJ       -743
    x[2]      c1        339
    x[2]      c3        1
    x[2]      OBJ       -722
    x[3]      c1        450
    x[3]      c4        1
    x[3]      OBJ       -7
    x[4]      c1        881
    x[4]      c5        1
    x[4]      OBJ       -622
    x[5]      c1        203
    x[5]      c6        1
    x[5]      OBJ       -715
    x[6]      c1        24
    x[6]      c7        1
    x[6]      OBJ       -936
    x[7]      c1        909
    x[7]      c8        1
    x[7]      OBJ       -896
    x[8]      c1        993
    x[8]      c9        1
    x[8]      OBJ       -495
    x[9]      c1        395
    x[9]      c10       1
    x[9]      OBJ       -731
    x[10]     c1        578
    x[10]     c11       1
    x[10]     OBJ       -596
    MARKER    'MARKER'                 'INTEND'
RHS
    rhs       c1        2744
    rhs       c2        10
    rhs       c3        4
    rhs       c4        3
    rhs       c5        7
    rhs       c6        10
    rhs       c7        3
    rhs       c8        8
    rhs       c9        9
    rhs       c10       1
    rhs       c11       2
RANGES
BOUNDS
 LO bounds    x[1]      0
 PL bounds    x[1]
 LO bounds    x[2]      0
 PL bounds    x[2]
 LO bounds    x[3]      0
 PL bounds    x[3]
 LO bounds    x[4]      0
 PL bounds    x[4]
 LO bounds    x[5]      0
 PL bounds    x[5]
 LO bounds    x[6]      0
 PL bounds    x[6]
 LO bounds    x[7]      0
 PL bounds    x[7]
 LO bounds    x[8]      0
 PL bounds    x[8]
 LO bounds    x[9]      0
 PL bounds    x[9]
 LO bounds    x[10]     0
 PL bounds    x[10]
ENDATA
